results_rootrelaxation/bin012_050_006.srr.sol
solution status: optimal solution found
objective value:                 -9.71445146547012e-16
_var174_                           0.0778017531166184 	(obj:0)
_var494_                           0.0365862247805389 	(obj:0)
_var681_                            0.151294348151804 	(obj:0)
_var682_                           0.0830649447108709 	(obj:0)
_var684_                            0.164407506771078 	(obj:0)
_var691_                            0.203292376055677 	(obj:0)
_var698_                            0.368532261059424 	(obj:0)
_var710_                            0.194385928966126 	(obj:0)
_var712_                           0.0461137540898581 	(obj:0)
_var718_                            0.168889543408523 	(obj:0)
_var723_                            0.143111429833719 	(obj:0)
_var727_                           0.0734413717593272 	(obj:0)
_var739_                            0.161743896426535 	(obj:0)
_var741_                            0.229493081656303 	(obj:0)
_var745_                            0.713956421798062 	(obj:0)
_var748_                            0.499657444342709 	(obj:0)
_var749_                            0.145992739100645 	(obj:0)
_var753_                          0.00551290506406162 	(obj:0)
_var757_                           0.0163722395456461 	(obj:0)
_var758_                            0.369268595649865 	(obj:0)
_var760_                           0.0538420658347127 	(obj:0)
_var761_                           0.0652136330748683 	(obj:0)
_var771_                            0.222277002670015 	(obj:0)
_var773_                            0.345712291665335 	(obj:0)
_var775_                              0.2934837590201 	(obj:0)
_var777_                            0.108266796432296 	(obj:0)
_var779_                            0.365657354701979 	(obj:0)
_var781_                           0.0575365446058709 	(obj:0)
_var782_                            0.105955346109275 	(obj:0)
_var785_                            0.396903552974473 	(obj:0)
_var786_                           0.0672369524712013 	(obj:0)
_var787_                            0.276119068504728 	(obj:0)
_var790_                            0.037879612495917 	(obj:0)
_var792_                           0.0010244655171347 	(obj:0)
_var793_                            0.238905358594945 	(obj:0)
_var802_                            0.389917978729534 	(obj:0)
_var803_                            0.107792981130628 	(obj:0)
_var806_                            0.263121162256127 	(obj:0)
_var809_                            0.141485090825277 	(obj:0)
_var811_                           0.0667631371695323 	(obj:0)
_var814_                            0.218255975515273 	(obj:0)
_var816_                            0.142932148368219 	(obj:0)
_var817_                            0.210213921205795 	(obj:0)
_var819_                           0.0355809679918526 	(obj:0)
_var820_                            0.244238982193513 	(obj:0)
_var821_                            0.231644459242279 	(obj:0)
_var822_                           0.0300552571088291 	(obj:0)
_var823_                            0.243925239628889 	(obj:0)
_var827_                            0.274736040056603 	(obj:0)
_var828_                           0.0120630814642196 	(obj:0)
_var830_                           0.0958963753129464 	(obj:0)
_var831_                            0.136810966903354 	(obj:0)
_var832_                            0.333348273455461 	(obj:0)
_var835_                           0.0529328526882582 	(obj:0)
_var837_                             0.15958611593108 	(obj:0)
_var840_                            0.241549760211042 	(obj:0)
_var842_                          0.00695996260700286 	(obj:0)
_var843_                            0.326740470869964 	(obj:0)
_var845_                           0.0550714244552726 	(obj:0)
_var847_                            0.032667644177514 	(obj:0)
_var849_                            0.190966775302697 	(obj:0)
_var851_                            0.132053605158182 	(obj:0)
_var852_                            0.133756779080414 	(obj:0)
